Minimize

COST_0


Subject To

a0: COST_0 - 0 - 55 v_0_0_2_0_0 - 60 v_0_0_2_0_1 - 50 v_0_0_2_0_2 - 58 v_0_0_2_0_3 - 55 v_0_0_2_1_0 - 60 v_0_0_2_1_1 - 50 v_0_0_2_1_2 - 58 v_0_0_2_1_3 - 55 v_0_0_2_2_0 - 60 v_0_0_2_2_1 - 50 v_0_0_2_2_2 - 58 v_0_0_2_2_3 - 55 v_0_0_2_3_0 - 60 v_0_0_2_3_1 - 50 v_0_0_2_3_2 - 58 v_0_0_2_3_3 - 55 v_0_1_2_0_0 - 60 v_0_1_2_0_1 - 50 v_0_1_2_0_2 - 58 v_0_1_2_0_3 - 55 v_0_1_2_1_0 - 60 v_0_1_2_1_1 - 50 v_0_1_2_1_2 - 58 v_0_1_2_1_3 - 55 v_0_1_2_2_0 - 60 v_0_1_2_2_1 - 50 v_0_1_2_2_2 - 58 v_0_1_2_2_3 - 55 v_0_1_2_3_0 - 60 v_0_1_2_3_1 - 50 v_0_1_2_3_2 - 58 v_0_1_2_3_3 - 55 v_0_2_2_0_0 - 60 v_0_2_2_0_1 - 50 v_0_2_2_0_2 - 58 v_0_2_2_0_3 - 55 v_0_2_2_1_0 - 60 v_0_2_2_1_1 - 50 v_0_2_2_1_2 - 58 v_0_2_2_1_3 - 55 v_0_2_2_2_0 - 60 v_0_2_2_2_1 - 50 v_0_2_2_2_2 - 58 v_0_2_2_2_3 - 55 v_0_2_2_3_0 - 60 v_0_2_2_3_1 - 50 v_0_2_2_3_2 - 58 v_0_2_2_3_3 - 55 v_0_3_2_0_0 - 60 v_0_3_2_0_1 - 50 v_0_3_2_0_2 - 58 v_0_3_2_0_3 - 55 v_0_3_2_1_0 - 60 v_0_3_2_1_1 - 50 v_0_3_2_1_2 - 58 v_0_3_2_1_3 - 55 v_0_3_2_2_0 - 60 v_0_3_2_2_1 - 50 v_0_3_2_2_2 - 58 v_0_3_2_2_3 - 55 v_0_3_2_3_0 - 60 v_0_3_2_3_1 - 50 v_0_3_2_3_2 - 58 v_0_3_2_3_3 - 80 v_1_0_2_0_2 - 75 v_1_0_2_0_4 - 70 v_1_0_2_0_5 - 80 v_1_0_2_1_2 - 75 v_1_0_2_1_4 - 70 v_1_0_2_1_5 - 80 v_1_0_2_2_2 - 75 v_1_0_2_2_4 - 70 v_1_0_2_2_5 - 80 v_1_0_2_3_2 - 75 v_1_0_2_3_4 - 70 v_1_0_2_3_5 - 80 v_1_1_2_0_2 - 75 v_1_1_2_0_4 - 70 v_1_1_2_0_5 - 80 v_1_1_2_1_2 - 75 v_1_1_2_1_4 - 70 v_1_1_2_1_5 - 80 v_1_1_2_2_2 - 75 v_1_1_2_2_4 - 70 v_1_1_2_2_5 - 80 v_1_1_2_3_2 - 75 v_1_1_2_3_4 - 70 v_1_1_2_3_5 - 80 v_1_2_2_0_2 - 75 v_1_2_2_0_4 - 70 v_1_2_2_0_5 - 80 v_1_2_2_1_2 - 75 v_1_2_2_1_4 - 70 v_1_2_2_1_5 - 80 v_1_2_2_2_2 - 75 v_1_2_2_2_4 - 70 v_1_2_2_2_5 - 80 v_1_2_2_3_2 - 75 v_1_2_2_3_4 - 70 v_1_2_2_3_5 - 80 v_1_3_2_0_2 - 75 v_1_3_2_0_4 - 70 v_1_3_2_0_5 - 80 v_1_3_2_1_2 - 75 v_1_3_2_1_4 - 70 v_1_3_2_1_5 - 80 v_1_3_2_2_2 - 75 v_1_3_2_2_4 - 70 v_1_3_2_2_5 - 80 v_1_3_2_3_2 - 75 v_1_3_2_3_4 - 70 v_1_3_2_3_5 = 0
b0: CO2_0 - 0 - 770 v_0_0_2_0_0 - 750 v_0_0_2_0_1 - 630 v_0_0_2_0_2 - 620 v_0_0_2_0_3 - 770 v_0_0_2_1_0 - 750 v_0_0_2_1_1 - 630 v_0_0_2_1_2 - 620 v_0_0_2_1_3 - 770 v_0_0_2_2_0 - 750 v_0_0_2_2_1 - 630 v_0_0_2_2_2 - 620 v_0_0_2_2_3 - 770 v_0_0_2_3_0 - 750 v_0_0_2_3_1 - 630 v_0_0_2_3_2 - 620 v_0_0_2_3_3 - 770 v_0_1_2_0_0 - 750 v_0_1_2_0_1 - 630 v_0_1_2_0_2 - 620 v_0_1_2_0_3 - 770 v_0_1_2_1_0 - 750 v_0_1_2_1_1 - 630 v_0_1_2_1_2 - 620 v_0_1_2_1_3 - 770 v_0_1_2_2_0 - 750 v_0_1_2_2_1 - 630 v_0_1_2_2_2 - 620 v_0_1_2_2_3 - 770 v_0_1_2_3_0 - 750 v_0_1_2_3_1 - 630 v_0_1_2_3_2 - 620 v_0_1_2_3_3 - 770 v_0_2_2_0_0 - 750 v_0_2_2_0_1 - 630 v_0_2_2_0_2 - 620 v_0_2_2_0_3 - 770 v_0_2_2_1_0 - 750 v_0_2_2_1_1 - 630 v_0_2_2_1_2 - 620 v_0_2_2_1_3 - 770 v_0_2_2_2_0 - 750 v_0_2_2_2_1 - 630 v_0_2_2_2_2 - 620 v_0_2_2_2_3 - 770 v_0_2_2_3_0 - 750 v_0_2_2_3_1 - 630 v_0_2_2_3_2 - 620 v_0_2_2_3_3 - 770 v_0_3_2_0_0 - 750 v_0_3_2_0_1 - 630 v_0_3_2_0_2 - 620 v_0_3_2_0_3 - 770 v_0_3_2_1_0 - 750 v_0_3_2_1_1 - 630 v_0_3_2_1_2 - 620 v_0_3_2_1_3 - 770 v_0_3_2_2_0 - 750 v_0_3_2_2_1 - 630 v_0_3_2_2_2 - 620 v_0_3_2_2_3 - 770 v_0_3_2_3_0 - 750 v_0_3_2_3_1 - 630 v_0_3_2_3_2 - 620 v_0_3_2_3_3 - 625 v_1_0_2_0_2 - 450 v_1_0_2_0_4 - 460 v_1_0_2_0_5 - 625 v_1_0_2_1_2 - 450 v_1_0_2_1_4 - 460 v_1_0_2_1_5 - 625 v_1_0_2_2_2 - 450 v_1_0_2_2_4 - 460 v_1_0_2_2_5 - 625 v_1_0_2_3_2 - 450 v_1_0_2_3_4 - 460 v_1_0_2_3_5 - 625 v_1_1_2_0_2 - 450 v_1_1_2_0_4 - 460 v_1_1_2_0_5 - 625 v_1_1_2_1_2 - 450 v_1_1_2_1_4 - 460 v_1_1_2_1_5 - 625 v_1_1_2_2_2 - 450 v_1_1_2_2_4 - 460 v_1_1_2_2_5 - 625 v_1_1_2_3_2 - 450 v_1_1_2_3_4 - 460 v_1_1_2_3_5 - 625 v_1_2_2_0_2 - 450 v_1_2_2_0_4 - 460 v_1_2_2_0_5 - 625 v_1_2_2_1_2 - 450 v_1_2_2_1_4 - 460 v_1_2_2_1_5 - 625 v_1_2_2_2_2 - 450 v_1_2_2_2_4 - 460 v_1_2_2_2_5 - 625 v_1_2_2_3_2 - 450 v_1_2_2_3_4 - 460 v_1_2_2_3_5 - 625 v_1_3_2_0_2 - 450 v_1_3_2_0_4 - 460 v_1_3_2_0_5 - 625 v_1_3_2_1_2 - 450 v_1_3_2_1_4 - 460 v_1_3_2_1_5 - 625 v_1_3_2_2_2 - 450 v_1_3_2_2_4 - 460 v_1_3_2_2_5 - 625 v_1_3_2_3_2 - 450 v_1_3_2_3_4 - 460 v_1_3_2_3_5 = 0
c0: TIME_0 - 0 - 202 v_0_0_2_0_0 - 202 v_0_0_2_0_1 - 166 v_0_0_2_0_2 - 166 v_0_0_2_0_3 - 202 v_0_0_2_1_0 - 202 v_0_0_2_1_1 - 166 v_0_0_2_1_2 - 166 v_0_0_2_1_3 - 202 v_0_0_2_2_0 - 202 v_0_0_2_2_1 - 166 v_0_0_2_2_2 - 166 v_0_0_2_2_3 - 202 v_0_0_2_3_0 - 202 v_0_0_2_3_1 - 166 v_0_0_2_3_2 - 166 v_0_0_2_3_3 - 202 v_0_1_2_0_0 - 202 v_0_1_2_0_1 - 166 v_0_1_2_0_2 - 166 v_0_1_2_0_3 - 202 v_0_1_2_1_0 - 202 v_0_1_2_1_1 - 166 v_0_1_2_1_2 - 166 v_0_1_2_1_3 - 202 v_0_1_2_2_0 - 202 v_0_1_2_2_1 - 166 v_0_1_2_2_2 - 166 v_0_1_2_2_3 - 202 v_0_1_2_3_0 - 202 v_0_1_2_3_1 - 166 v_0_1_2_3_2 - 166 v_0_1_2_3_3 - 202 v_0_2_2_0_0 - 202 v_0_2_2_0_1 - 166 v_0_2_2_0_2 - 166 v_0_2_2_0_3 - 202 v_0_2_2_1_0 - 202 v_0_2_2_1_1 - 166 v_0_2_2_1_2 - 166 v_0_2_2_1_3 - 202 v_0_2_2_2_0 - 202 v_0_2_2_2_1 - 166 v_0_2_2_2_2 - 166 v_0_2_2_2_3 - 202 v_0_2_2_3_0 - 202 v_0_2_2_3_1 - 166 v_0_2_2_3_2 - 166 v_0_2_2_3_3 - 202 v_0_3_2_0_0 - 202 v_0_3_2_0_1 - 166 v_0_3_2_0_2 - 166 v_0_3_2_0_3 - 202 v_0_3_2_1_0 - 202 v_0_3_2_1_1 - 166 v_0_3_2_1_2 - 166 v_0_3_2_1_3 - 202 v_0_3_2_2_0 - 202 v_0_3_2_2_1 - 166 v_0_3_2_2_2 - 166 v_0_3_2_2_3 - 202 v_0_3_2_3_0 - 202 v_0_3_2_3_1 - 166 v_0_3_2_3_2 - 166 v_0_3_2_3_3 - 166 v_1_0_2_0_2 - 142 v_1_0_2_0_4 - 142 v_1_0_2_0_5 - 166 v_1_0_2_1_2 - 142 v_1_0_2_1_4 - 142 v_1_0_2_1_5 - 166 v_1_0_2_2_2 - 142 v_1_0_2_2_4 - 142 v_1_0_2_2_5 - 166 v_1_0_2_3_2 - 142 v_1_0_2_3_4 - 142 v_1_0_2_3_5 - 166 v_1_1_2_0_2 - 142 v_1_1_2_0_4 - 142 v_1_1_2_0_5 - 166 v_1_1_2_1_2 - 142 v_1_1_2_1_4 - 142 v_1_1_2_1_5 - 166 v_1_1_2_2_2 - 142 v_1_1_2_2_4 - 142 v_1_1_2_2_5 - 166 v_1_1_2_3_2 - 142 v_1_1_2_3_4 - 142 v_1_1_2_3_5 - 166 v_1_2_2_0_2 - 142 v_1_2_2_0_4 - 142 v_1_2_2_0_5 - 166 v_1_2_2_1_2 - 142 v_1_2_2_1_4 - 142 v_1_2_2_1_5 - 166 v_1_2_2_2_2 - 142 v_1_2_2_2_4 - 142 v_1_2_2_2_5 - 166 v_1_2_2_3_2 - 142 v_1_2_2_3_4 - 142 v_1_2_2_3_5 - 166 v_1_3_2_0_2 - 142 v_1_3_2_0_4 - 142 v_1_3_2_0_5 - 166 v_1_3_2_1_2 - 142 v_1_3_2_1_4 - 142 v_1_3_2_1_5 - 166 v_1_3_2_2_2 - 142 v_1_3_2_2_4 - 142 v_1_3_2_2_5 - 166 v_1_3_2_3_2 - 142 v_1_3_2_3_4 - 142 v_1_3_2_3_5 = 0
d0: x_0_0 + x_0_1 = 1
d1: x_1_1 + x_1_2 = 1
d2: x_2_3 = 1
e0: x_0_2 + x_0_3 = 0
e1: x_1_0 + x_1_3 = 0
e2: x_2_0 + x_2_1 + x_2_2 = 0
f0: w_0_0 + w_0_1 + w_0_2 + w_0_3 = 1
f1: w_1_2 + w_1_4 + w_1_5 = 1
g0: w_0_4 + w_0_5 = 0
g1: w_1_0 + w_1_1 + w_1_3 = 0
g2: w_2_0 + w_2_1 + w_2_2 + w_2_3 + w_2_4 + w_2_5 = 0
h0: x_0_0 + x_2_0 + w_0_0 - v_0_0_2_0_0 <= 2
h1: x_0_0 + x_2_0 + w_0_1 - v_0_0_2_0_1 <= 2
h2: x_0_0 + x_2_0 + w_0_2 - v_0_0_2_0_2 <= 2
h3: x_0_0 + x_2_0 + w_0_3 - v_0_0_2_0_3 <= 2
h4: x_0_0 + x_2_0 + w_0_4 - v_0_0_2_0_4 <= 2
h5: x_0_0 + x_2_0 + w_0_5 - v_0_0_2_0_5 <= 2
h6: x_0_0 + x_2_1 + w_0_0 - v_0_0_2_1_0 <= 2
h7: x_0_0 + x_2_1 + w_0_1 - v_0_0_2_1_1 <= 2
h8: x_0_0 + x_2_1 + w_0_2 - v_0_0_2_1_2 <= 2
h9: x_0_0 + x_2_1 + w_0_3 - v_0_0_2_1_3 <= 2
h10: x_0_0 + x_2_1 + w_0_4 - v_0_0_2_1_4 <= 2
h11: x_0_0 + x_2_1 + w_0_5 - v_0_0_2_1_5 <= 2
h12: x_0_0 + x_2_2 + w_0_0 - v_0_0_2_2_0 <= 2
h13: x_0_0 + x_2_2 + w_0_1 - v_0_0_2_2_1 <= 2
h14: x_0_0 + x_2_2 + w_0_2 - v_0_0_2_2_2 <= 2
h15: x_0_0 + x_2_2 + w_0_3 - v_0_0_2_2_3 <= 2
h16: x_0_0 + x_2_2 + w_0_4 - v_0_0_2_2_4 <= 2
h17: x_0_0 + x_2_2 + w_0_5 - v_0_0_2_2_5 <= 2
h18: x_0_0 + x_2_3 + w_0_0 - v_0_0_2_3_0 <= 2
h19: x_0_0 + x_2_3 + w_0_1 - v_0_0_2_3_1 <= 2
h20: x_0_0 + x_2_3 + w_0_2 - v_0_0_2_3_2 <= 2
h21: x_0_0 + x_2_3 + w_0_3 - v_0_0_2_3_3 <= 2
h22: x_0_0 + x_2_3 + w_0_4 - v_0_0_2_3_4 <= 2
h23: x_0_0 + x_2_3 + w_0_5 - v_0_0_2_3_5 <= 2
h24: x_0_1 + x_2_0 + w_0_0 - v_0_1_2_0_0 <= 2
h25: x_0_1 + x_2_0 + w_0_1 - v_0_1_2_0_1 <= 2
h26: x_0_1 + x_2_0 + w_0_2 - v_0_1_2_0_2 <= 2
h27: x_0_1 + x_2_0 + w_0_3 - v_0_1_2_0_3 <= 2
h28: x_0_1 + x_2_0 + w_0_4 - v_0_1_2_0_4 <= 2
h29: x_0_1 + x_2_0 + w_0_5 - v_0_1_2_0_5 <= 2
h30: x_0_1 + x_2_1 + w_0_0 - v_0_1_2_1_0 <= 2
h31: x_0_1 + x_2_1 + w_0_1 - v_0_1_2_1_1 <= 2
h32: x_0_1 + x_2_1 + w_0_2 - v_0_1_2_1_2 <= 2
h33: x_0_1 + x_2_1 + w_0_3 - v_0_1_2_1_3 <= 2
h34: x_0_1 + x_2_1 + w_0_4 - v_0_1_2_1_4 <= 2
h35: x_0_1 + x_2_1 + w_0_5 - v_0_1_2_1_5 <= 2
h36: x_0_1 + x_2_2 + w_0_0 - v_0_1_2_2_0 <= 2
h37: x_0_1 + x_2_2 + w_0_1 - v_0_1_2_2_1 <= 2
h38: x_0_1 + x_2_2 + w_0_2 - v_0_1_2_2_2 <= 2
h39: x_0_1 + x_2_2 + w_0_3 - v_0_1_2_2_3 <= 2
h40: x_0_1 + x_2_2 + w_0_4 - v_0_1_2_2_4 <= 2
h41: x_0_1 + x_2_2 + w_0_5 - v_0_1_2_2_5 <= 2
h42: x_0_1 + x_2_3 + w_0_0 - v_0_1_2_3_0 <= 2
h43: x_0_1 + x_2_3 + w_0_1 - v_0_1_2_3_1 <= 2
h44: x_0_1 + x_2_3 + w_0_2 - v_0_1_2_3_2 <= 2
h45: x_0_1 + x_2_3 + w_0_3 - v_0_1_2_3_3 <= 2
h46: x_0_1 + x_2_3 + w_0_4 - v_0_1_2_3_4 <= 2
h47: x_0_1 + x_2_3 + w_0_5 - v_0_1_2_3_5 <= 2
h48: x_0_2 + x_2_0 + w_0_0 - v_0_2_2_0_0 <= 2
h49: x_0_2 + x_2_0 + w_0_1 - v_0_2_2_0_1 <= 2
h50: x_0_2 + x_2_0 + w_0_2 - v_0_2_2_0_2 <= 2
h51: x_0_2 + x_2_0 + w_0_3 - v_0_2_2_0_3 <= 2
h52: x_0_2 + x_2_0 + w_0_4 - v_0_2_2_0_4 <= 2
h53: x_0_2 + x_2_0 + w_0_5 - v_0_2_2_0_5 <= 2
h54: x_0_2 + x_2_1 + w_0_0 - v_0_2_2_1_0 <= 2
h55: x_0_2 + x_2_1 + w_0_1 - v_0_2_2_1_1 <= 2
h56: x_0_2 + x_2_1 + w_0_2 - v_0_2_2_1_2 <= 2
h57: x_0_2 + x_2_1 + w_0_3 - v_0_2_2_1_3 <= 2
h58: x_0_2 + x_2_1 + w_0_4 - v_0_2_2_1_4 <= 2
h59: x_0_2 + x_2_1 + w_0_5 - v_0_2_2_1_5 <= 2
h60: x_0_2 + x_2_2 + w_0_0 - v_0_2_2_2_0 <= 2
h61: x_0_2 + x_2_2 + w_0_1 - v_0_2_2_2_1 <= 2
h62: x_0_2 + x_2_2 + w_0_2 - v_0_2_2_2_2 <= 2
h63: x_0_2 + x_2_2 + w_0_3 - v_0_2_2_2_3 <= 2
h64: x_0_2 + x_2_2 + w_0_4 - v_0_2_2_2_4 <= 2
h65: x_0_2 + x_2_2 + w_0_5 - v_0_2_2_2_5 <= 2
h66: x_0_2 + x_2_3 + w_0_0 - v_0_2_2_3_0 <= 2
h67: x_0_2 + x_2_3 + w_0_1 - v_0_2_2_3_1 <= 2
h68: x_0_2 + x_2_3 + w_0_2 - v_0_2_2_3_2 <= 2
h69: x_0_2 + x_2_3 + w_0_3 - v_0_2_2_3_3 <= 2
h70: x_0_2 + x_2_3 + w_0_4 - v_0_2_2_3_4 <= 2
h71: x_0_2 + x_2_3 + w_0_5 - v_0_2_2_3_5 <= 2
h72: x_0_3 + x_2_0 + w_0_0 - v_0_3_2_0_0 <= 2
h73: x_0_3 + x_2_0 + w_0_1 - v_0_3_2_0_1 <= 2
h74: x_0_3 + x_2_0 + w_0_2 - v_0_3_2_0_2 <= 2
h75: x_0_3 + x_2_0 + w_0_3 - v_0_3_2_0_3 <= 2
h76: x_0_3 + x_2_0 + w_0_4 - v_0_3_2_0_4 <= 2
h77: x_0_3 + x_2_0 + w_0_5 - v_0_3_2_0_5 <= 2
h78: x_0_3 + x_2_1 + w_0_0 - v_0_3_2_1_0 <= 2
h79: x_0_3 + x_2_1 + w_0_1 - v_0_3_2_1_1 <= 2
h80: x_0_3 + x_2_1 + w_0_2 - v_0_3_2_1_2 <= 2
h81: x_0_3 + x_2_1 + w_0_3 - v_0_3_2_1_3 <= 2
h82: x_0_3 + x_2_1 + w_0_4 - v_0_3_2_1_4 <= 2
h83: x_0_3 + x_2_1 + w_0_5 - v_0_3_2_1_5 <= 2
h84: x_0_3 + x_2_2 + w_0_0 - v_0_3_2_2_0 <= 2
h85: x_0_3 + x_2_2 + w_0_1 - v_0_3_2_2_1 <= 2
h86: x_0_3 + x_2_2 + w_0_2 - v_0_3_2_2_2 <= 2
h87: x_0_3 + x_2_2 + w_0_3 - v_0_3_2_2_3 <= 2
h88: x_0_3 + x_2_2 + w_0_4 - v_0_3_2_2_4 <= 2
h89: x_0_3 + x_2_2 + w_0_5 - v_0_3_2_2_5 <= 2
h90: x_0_3 + x_2_3 + w_0_0 - v_0_3_2_3_0 <= 2
h91: x_0_3 + x_2_3 + w_0_1 - v_0_3_2_3_1 <= 2
h92: x_0_3 + x_2_3 + w_0_2 - v_0_3_2_3_2 <= 2
h93: x_0_3 + x_2_3 + w_0_3 - v_0_3_2_3_3 <= 2
h94: x_0_3 + x_2_3 + w_0_4 - v_0_3_2_3_4 <= 2
h95: x_0_3 + x_2_3 + w_0_5 - v_0_3_2_3_5 <= 2
h96: x_1_0 + x_2_0 + w_1_0 - v_1_0_2_0_0 <= 2
h97: x_1_0 + x_2_0 + w_1_1 - v_1_0_2_0_1 <= 2
h98: x_1_0 + x_2_0 + w_1_2 - v_1_0_2_0_2 <= 2
h99: x_1_0 + x_2_0 + w_1_3 - v_1_0_2_0_3 <= 2
h100: x_1_0 + x_2_0 + w_1_4 - v_1_0_2_0_4 <= 2
h101: x_1_0 + x_2_0 + w_1_5 - v_1_0_2_0_5 <= 2
h102: x_1_0 + x_2_1 + w_1_0 - v_1_0_2_1_0 <= 2
h103: x_1_0 + x_2_1 + w_1_1 - v_1_0_2_1_1 <= 2
h104: x_1_0 + x_2_1 + w_1_2 - v_1_0_2_1_2 <= 2
h105: x_1_0 + x_2_1 + w_1_3 - v_1_0_2_1_3 <= 2
h106: x_1_0 + x_2_1 + w_1_4 - v_1_0_2_1_4 <= 2
h107: x_1_0 + x_2_1 + w_1_5 - v_1_0_2_1_5 <= 2
h108: x_1_0 + x_2_2 + w_1_0 - v_1_0_2_2_0 <= 2
h109: x_1_0 + x_2_2 + w_1_1 - v_1_0_2_2_1 <= 2
h110: x_1_0 + x_2_2 + w_1_2 - v_1_0_2_2_2 <= 2
h111: x_1_0 + x_2_2 + w_1_3 - v_1_0_2_2_3 <= 2
h112: x_1_0 + x_2_2 + w_1_4 - v_1_0_2_2_4 <= 2
h113: x_1_0 + x_2_2 + w_1_5 - v_1_0_2_2_5 <= 2
h114: x_1_0 + x_2_3 + w_1_0 - v_1_0_2_3_0 <= 2
h115: x_1_0 + x_2_3 + w_1_1 - v_1_0_2_3_1 <= 2
h116: x_1_0 + x_2_3 + w_1_2 - v_1_0_2_3_2 <= 2
h117: x_1_0 + x_2_3 + w_1_3 - v_1_0_2_3_3 <= 2
h118: x_1_0 + x_2_3 + w_1_4 - v_1_0_2_3_4 <= 2
h119: x_1_0 + x_2_3 + w_1_5 - v_1_0_2_3_5 <= 2
h120: x_1_1 + x_2_0 + w_1_0 - v_1_1_2_0_0 <= 2
h121: x_1_1 + x_2_0 + w_1_1 - v_1_1_2_0_1 <= 2
h122: x_1_1 + x_2_0 + w_1_2 - v_1_1_2_0_2 <= 2
h123: x_1_1 + x_2_0 + w_1_3 - v_1_1_2_0_3 <= 2
h124: x_1_1 + x_2_0 + w_1_4 - v_1_1_2_0_4 <= 2
h125: x_1_1 + x_2_0 + w_1_5 - v_1_1_2_0_5 <= 2
h126: x_1_1 + x_2_1 + w_1_0 - v_1_1_2_1_0 <= 2
h127: x_1_1 + x_2_1 + w_1_1 - v_1_1_2_1_1 <= 2
h128: x_1_1 + x_2_1 + w_1_2 - v_1_1_2_1_2 <= 2
h129: x_1_1 + x_2_1 + w_1_3 - v_1_1_2_1_3 <= 2
h130: x_1_1 + x_2_1 + w_1_4 - v_1_1_2_1_4 <= 2
h131: x_1_1 + x_2_1 + w_1_5 - v_1_1_2_1_5 <= 2
h132: x_1_1 + x_2_2 + w_1_0 - v_1_1_2_2_0 <= 2
h133: x_1_1 + x_2_2 + w_1_1 - v_1_1_2_2_1 <= 2
h134: x_1_1 + x_2_2 + w_1_2 - v_1_1_2_2_2 <= 2
h135: x_1_1 + x_2_2 + w_1_3 - v_1_1_2_2_3 <= 2
h136: x_1_1 + x_2_2 + w_1_4 - v_1_1_2_2_4 <= 2
h137: x_1_1 + x_2_2 + w_1_5 - v_1_1_2_2_5 <= 2
h138: x_1_1 + x_2_3 + w_1_0 - v_1_1_2_3_0 <= 2
h139: x_1_1 + x_2_3 + w_1_1 - v_1_1_2_3_1 <= 2
h140: x_1_1 + x_2_3 + w_1_2 - v_1_1_2_3_2 <= 2
h141: x_1_1 + x_2_3 + w_1_3 - v_1_1_2_3_3 <= 2
h142: x_1_1 + x_2_3 + w_1_4 - v_1_1_2_3_4 <= 2
h143: x_1_1 + x_2_3 + w_1_5 - v_1_1_2_3_5 <= 2
h144: x_1_2 + x_2_0 + w_1_0 - v_1_2_2_0_0 <= 2
h145: x_1_2 + x_2_0 + w_1_1 - v_1_2_2_0_1 <= 2
h146: x_1_2 + x_2_0 + w_1_2 - v_1_2_2_0_2 <= 2
h147: x_1_2 + x_2_0 + w_1_3 - v_1_2_2_0_3 <= 2
h148: x_1_2 + x_2_0 + w_1_4 - v_1_2_2_0_4 <= 2
h149: x_1_2 + x_2_0 + w_1_5 - v_1_2_2_0_5 <= 2
h150: x_1_2 + x_2_1 + w_1_0 - v_1_2_2_1_0 <= 2
h151: x_1_2 + x_2_1 + w_1_1 - v_1_2_2_1_1 <= 2
h152: x_1_2 + x_2_1 + w_1_2 - v_1_2_2_1_2 <= 2
h153: x_1_2 + x_2_1 + w_1_3 - v_1_2_2_1_3 <= 2
h154: x_1_2 + x_2_1 + w_1_4 - v_1_2_2_1_4 <= 2
h155: x_1_2 + x_2_1 + w_1_5 - v_1_2_2_1_5 <= 2
h156: x_1_2 + x_2_2 + w_1_0 - v_1_2_2_2_0 <= 2
h157: x_1_2 + x_2_2 + w_1_1 - v_1_2_2_2_1 <= 2
h158: x_1_2 + x_2_2 + w_1_2 - v_1_2_2_2_2 <= 2
h159: x_1_2 + x_2_2 + w_1_3 - v_1_2_2_2_3 <= 2
h160: x_1_2 + x_2_2 + w_1_4 - v_1_2_2_2_4 <= 2
h161: x_1_2 + x_2_2 + w_1_5 - v_1_2_2_2_5 <= 2
h162: x_1_2 + x_2_3 + w_1_0 - v_1_2_2_3_0 <= 2
h163: x_1_2 + x_2_3 + w_1_1 - v_1_2_2_3_1 <= 2
h164: x_1_2 + x_2_3 + w_1_2 - v_1_2_2_3_2 <= 2
h165: x_1_2 + x_2_3 + w_1_3 - v_1_2_2_3_3 <= 2
h166: x_1_2 + x_2_3 + w_1_4 - v_1_2_2_3_4 <= 2
h167: x_1_2 + x_2_3 + w_1_5 - v_1_2_2_3_5 <= 2
h168: x_1_3 + x_2_0 + w_1_0 - v_1_3_2_0_0 <= 2
h169: x_1_3 + x_2_0 + w_1_1 - v_1_3_2_0_1 <= 2
h170: x_1_3 + x_2_0 + w_1_2 - v_1_3_2_0_2 <= 2
h171: x_1_3 + x_2_0 + w_1_3 - v_1_3_2_0_3 <= 2
h172: x_1_3 + x_2_0 + w_1_4 - v_1_3_2_0_4 <= 2
h173: x_1_3 + x_2_0 + w_1_5 - v_1_3_2_0_5 <= 2
h174: x_1_3 + x_2_1 + w_1_0 - v_1_3_2_1_0 <= 2
h175: x_1_3 + x_2_1 + w_1_1 - v_1_3_2_1_1 <= 2
h176: x_1_3 + x_2_1 + w_1_2 - v_1_3_2_1_2 <= 2
h177: x_1_3 + x_2_1 + w_1_3 - v_1_3_2_1_3 <= 2
h178: x_1_3 + x_2_1 + w_1_4 - v_1_3_2_1_4 <= 2
h179: x_1_3 + x_2_1 + w_1_5 - v_1_3_2_1_5 <= 2
h180: x_1_3 + x_2_2 + w_1_0 - v_1_3_2_2_0 <= 2
h181: x_1_3 + x_2_2 + w_1_1 - v_1_3_2_2_1 <= 2
h182: x_1_3 + x_2_2 + w_1_2 - v_1_3_2_2_2 <= 2
h183: x_1_3 + x_2_2 + w_1_3 - v_1_3_2_2_3 <= 2
h184: x_1_3 + x_2_2 + w_1_4 - v_1_3_2_2_4 <= 2
h185: x_1_3 + x_2_2 + w_1_5 - v_1_3_2_2_5 <= 2
h186: x_1_3 + x_2_3 + w_1_0 - v_1_3_2_3_0 <= 2
h187: x_1_3 + x_2_3 + w_1_1 - v_1_3_2_3_1 <= 2
h188: x_1_3 + x_2_3 + w_1_2 - v_1_3_2_3_2 <= 2
h189: x_1_3 + x_2_3 + w_1_3 - v_1_3_2_3_3 <= 2
h190: x_1_3 + x_2_3 + w_1_4 - v_1_3_2_3_4 <= 2
h191: x_1_3 + x_2_3 + w_1_5 - v_1_3_2_3_5 <= 2




 


End
